%chk=harmonium.chk
%mem=2GB
%NProcShared=1
%LindaWorkers=$(scontrol show hostname | paste -d, -s)
#P Opt MP2 gen gfinput IOP(3/32=2) IOP(8/11=1) IOP(6/97=20) SCF(qc) IOP(6/93=2) extralink=l667 use=l802 IOP(3/14=-1) IOP(3/26=11) IOP(3/27=20) IOP(6/95=8) IOP(6/98=0) IOP(6/99=-1)

Harmonium Calculation harmonium_omega_0.5 MP2 8SPDF

-2 1
H-Bq 0.000000 0.000000 0.000000

   1 0
S   1 1.0 0.0
                 0.2372154041 1.0
P   1 1.0 0.0
                 0.2372154041 1.0
D   1 1.0 0.0
                 0.2372154041 1.0
F   1 1.0 0.0
                 0.2372154041 1.0
S   1 1.0 0.0
                 0.35523112080497954 1.0
P   1 1.0 0.0
                 0.35523112080497954 1.0
D   1 1.0 0.0
                 0.35523112080497954 1.0
F   1 1.0 0.0
                 0.35523112080497954 1.0
S   1 1.0 0.0
                 0.5319601805250639 1.0
P   1 1.0 0.0
                 0.5319601805250639 1.0
D   1 1.0 0.0
                 0.5319601805250639 1.0
F   1 1.0 0.0
                 0.5319601805250639 1.0
S   1 1.0 0.0
                 0.7966127320798967 1.0
P   1 1.0 0.0
                 0.7966127320798967 1.0
D   1 1.0 0.0
                 0.7966127320798967 1.0
F   1 1.0 0.0
                 0.7966127320798967 1.0
S   1 1.0 0.0
                 1.1929311030111918 1.0
P   1 1.0 0.0
                 1.1929311030111918 1.0
D   1 1.0 0.0
                 1.1929311030111918 1.0
F   1 1.0 0.0
                 1.1929311030111918 1.0
S   1 1.0 0.0
                 1.7864196230154776 1.0
P   1 1.0 0.0
                 1.7864196230154776 1.0
D   1 1.0 0.0
                 1.7864196230154776 1.0
F   1 1.0 0.0
                 1.7864196230154776 1.0
S   1 1.0 0.0
                 2.6751713166328774 1.0
P   1 1.0 0.0
                 2.6751713166328774 1.0
D   1 1.0 0.0
                 2.6751713166328774 1.0
F   1 1.0 0.0
                 2.6751713166328774 1.0
S   1 1.0 0.0
                 4.006080923615829 1.0
P   1 1.0 0.0
                 4.006080923615829 1.0
D   1 1.0 0.0
                 4.006080923615829 1.0
F   1 1.0 0.0
                 4.006080923615829 1.0
  ****

    0.0000000000D+00    0.0000000000D+00    0.0000000000D+00
   -0.1250000000   -0.1250000000   -0.1250000000
    0.0000000000D+00    0.0000000000D+00    0.0000000000D+00
    0.0000000000D+00    0.0000000000D+00    0.0000000000D+00
    0.0000000000D+00    0.0000000000D+00    0.0000000000D+00
    0.0000000000D+00    0.0000000000D+00    0.0000000000D+00
    0.0000000000D+00    0.0000000000D+00    0.0000000000D+00
    0.0000000000D+00    0.0000000000D+00    0.0000000000D+00
    0.0000000000D+00    0.0000000000D+00    0.0000000000D+00
    0.0000000000D+00    0.0000000000D+00    0.0000000000D+00
    0.0000000000D+00    0.0000000000D+00    0.0000000000D+00
