%chk=405654_hf.chk
%mem=4GB
%NProcShared=1
#P SP HF/6-311G** gfinput fchk=all out=wfx

405654 helium HF 6-311G**

0 1
He    0.0000   0.0000   0.0000

405654_hf.wfx

