%chk=432823_hf.chk
%mem=4GB
%NProcShared=1
#P SP HF/cc-pVDZ gfinput fchk=all out=wfx

432823 helium HF cc-pVDZ

0 1
He    0.0000   0.0000   0.0000

432823_hf.wfx

