%chk=543321_hf.chk
%mem=4GB
%NProcShared=1
#P SP HF/gen gfinput fchk=all out=wfx

543321 nitrogen_atom HF 5SPD

5 1
N    0.0000   0.0000   0.0000

   1 0
S   1 1.0 0.0
                 915.534221214844 1.0
P   1 1.0 0.0
                 915.534221214844 1.0
D   1 1.0 0.0
                 915.534221214844 1.0
S   1 1.0 0.0
                 248.98777319857277 1.0
P   1 1.0 0.0
                 248.98777319857277 1.0
D   1 1.0 0.0
                 248.98777319857277 1.0
S   1 1.0 0.0
                 67.71446633651924 1.0
P   1 1.0 0.0
                 67.71446633651924 1.0
D   1 1.0 0.0
                 67.71446633651924 1.0
S   1 1.0 0.0
                 18.41555869324864 1.0
P   1 1.0 0.0
                 18.41555869324864 1.0
D   1 1.0 0.0
                 18.41555869324864 1.0
S   1 1.0 0.0
                 5.008276965502526 1.0
P   1 1.0 0.0
                 5.008276965502526 1.0
D   1 1.0 0.0
                 5.008276965502526 1.0
 ****

543321_hf.wfx

