%chk=561657_hf.chk
%mem=4GB
%NProcShared=1
#P SP HF/cc-pVDZ gfinput fchk=all out=wfx

561657 helium HF cc-pVDZ

0 1
He    0.0000   0.0000   0.0000

561657_hf.wfx

