%chk=639628_hf.chk
%mem=4GB
%NProcShared=1
#P SP HF/cc-pVDZ gfinput fchk=all out=wfx

639628 helium HF cc-pVDZ

0 1
He    0.0000   0.0000   0.0000

639628_hf.wfx

