%chk=718794_hf.chk
%mem=4GB
%NProcShared=1
#P SP HF/6-311G** gfinput fchk=all out=wfx

718794 helium HF 6-311G**

0 1
He    0.0000   0.0000   0.0000

718794_hf.wfx

