%chk=743653.chk
%mem=4GB
%NProcShared=1
#P SP HF/6-311G** gfinput fchk=all out=wfx

743653 helium HF 6-311G**

0 1
He    0.0000   0.0000   0.0000

743653.wfx

