%chk=896275_hf.chk
%mem=4GB
%NProcShared=1
#P SP HF/6-311G** gfinput fchk=all out=wfx

896275 helium HF 6-311G**

0 1
He    0.0000   0.0000   0.0000

896275_hf.wfx

